unknown
(model
; cardinality of BoundSet is 3
(declare-sort BoundSet 0)
; rep: @uc_BoundSet_0
; rep: @uc_BoundSet_1
; rep: @uc_BoundSet_2
; cardinality of UnboundSet is 1
(declare-sort UnboundSet 0)
(declare-fun groundTerm_4 () UnboundSet)
(define-fun IsOpenMinded ((BOUND_VARIABLE_455 BoundSet)) Bool true)
(define-fun HasRecordOnVotes ((BOUND_VARIABLE_455 BoundSet)) Bool true)
(define-fun ExpandsEducationalOpportunities ((BOUND_VARIABLE_462 BoundSet) (BOUND_VARIABLE_463 BoundSet)) Bool true)
(define-fun ConcernsVotesEnvironment ((BOUND_VARIABLE_462 BoundSet) (BOUND_VARIABLE_463 BoundSet)) Bool false)
(define-fun IsImportant ((BOUND_VARIABLE_455 BoundSet)) Bool false)
)
sat
(model
; cardinality of BoundSet is 1
(declare-sort BoundSet 0)
; rep: @uc_BoundSet_0
; cardinality of UnboundSet is 1
(declare-sort UnboundSet 0)
(declare-fun groundTerm_7 () UnboundSet)
(define-fun IsOpenMinded ((BOUND_VARIABLE_500 BoundSet)) Bool true)
(define-fun HasRecordOnVotes ((BOUND_VARIABLE_500 BoundSet)) Bool true)
(define-fun ExpandsEducationalOpportunities ((BOUND_VARIABLE_507 BoundSet) (BOUND_VARIABLE_508 BoundSet)) Bool true)
(define-fun ConcernsVotesEnvironment ((BOUND_VARIABLE_507 BoundSet) (BOUND_VARIABLE_508 BoundSet)) Bool false)
(define-fun IsImportant ((BOUND_VARIABLE_500 BoundSet)) Bool true)
)
